min: c;

c = 2.87919865606136 * u1_t7_h4 + 3.89335458125028 * u1_t7_h5 + 3.46963111769269 * u1_t5_h6 + 3.46963111769269 * u1_t7_h6 + 4.49469502008875 * u1_t5_h7 + 4.49469502008875 * u1_t7_h7 + 4.49469502008875 * u1_t9_h7 + 5.11308071097714 * u1_t5_h8 + 5.11308071097714 * u1_t7_h8 + 5.11308071097714 * u1_t9_h8 + 5.11308071097714 * u1_t10_h8 + 5.02834712565721 * u1_t5_h9 + 5.02834712565721 * u1_t7_h9 + 5.02834712565721 * u1_t9_h9 + 5.02834712565721 * u1_t10_h9 + 5.76361434708051 * u1_t5_h10 + 5.76361434708051 * u1_t7_h10 + 5.76361434708051 * u1_t9_h10 + 5.76361434708051 * u1_t10_h10 + 3.95826448552148 * u1_t5_h11 + 3.95826448552148 * u1_t9_h11 + 3.95826448552148 * u1_t10_h11 + 5.72505419104223 * u1_t4_h12 + 5.72505419104223 * u1_t5_h12 + 5.72505419104223 * u1_t8_h12 + 5.72505419104223 * u1_t9_h12 + 5.72505419104223 * u1_t10_h12 + 4.27924533136139 * u1_t4_h13 + 4.27924533136139 * u1_t8_h13 + 4.27924533136139 * u1_t9_h13 + 4.27924533136139 * u1_t10_h13 + 5.70815880811847 * u1_t4_h14 + 5.70815880811847 * u1_t8_h14 + 5.70815880811847 * u1_t9_h14 + 5.70815880811847 * u1_t10_h14 + 5.98003416608639 * u1_t4_h15 + 5.98003416608639 * u1_t8_h15 + 5.79206578024941 * u1_t4_h16 + 5.79206578024941 * u1_t8_h16 + 6.63430206050305 * u1_t4_h17 + 6.63430206050305 * u1_t8_h17 + 6.30965370653115 * u1_t2_h18 + 6.30965370653115 * u1_t4_h18 + 6.30965370653115 * u1_t6_h18 + 6.30965370653115 * u1_t8_h18 + 5.57156307927984 * u1_t2_h19 + 5.57156307927984 * u1_t3_h19 + 5.57156307927984 * u1_t4_h19 + 5.57156307927984 * u1_t6_h19 + 5.99982560754579 * u1_t1_h20 + 5.99982560754579 * u1_t2_h20 + 5.99982560754579 * u1_t3_h20 + 5.99982560754579 * u1_t4_h20 + 5.99982560754579 * u1_t6_h20 + 5.6983953809261 * u1_t1_h21 + 5.6983953809261 * u1_t2_h21 + 5.6983953809261 * u1_t3_h21 + 5.30277217071117 * u1_t1_h22 + 5.30277217071117 * u1_t2_h22 + 5.176008916071 * u1_t1_h23 + 5.176008916071 * u1_t2_h23;
0 <= u1_t1_h20 <= 1;
0 <= u1_t1_h21 <= 1;
0 <= u1_t1_h22 <= 1;
0 <= u1_t1_h23 <= 1;
u1_t1_h20 + u1_t1_h21 + u1_t1_h22 + u1_t1_h23 = 1;
0 <= u1_t2_h18 <= 1;
0 <= u1_t2_h19 <= 1;
0 <= u1_t2_h20 <= 1;
0 <= u1_t2_h21 <= 1;
0 <= u1_t2_h22 <= 1;
0 <= u1_t2_h23 <= 1;
u1_t2_h18 + u1_t2_h19 + u1_t2_h20 + u1_t2_h21 + u1_t2_h22 + u1_t2_h23 = 2;
0 <= u1_t3_h19 <= 1;
0 <= u1_t3_h20 <= 1;
0 <= u1_t3_h21 <= 1;
u1_t3_h19 + u1_t3_h20 + u1_t3_h21 = 1;
0 <= u1_t4_h12 <= 1;
0 <= u1_t4_h13 <= 1;
0 <= u1_t4_h14 <= 1;
0 <= u1_t4_h15 <= 1;
0 <= u1_t4_h16 <= 1;
0 <= u1_t4_h17 <= 1;
0 <= u1_t4_h18 <= 1;
0 <= u1_t4_h19 <= 1;
0 <= u1_t4_h20 <= 1;
u1_t4_h12 + u1_t4_h13 + u1_t4_h14 + u1_t4_h15 + u1_t4_h16 + u1_t4_h17 + u1_t4_h18 + u1_t4_h19 + u1_t4_h20 = 3;
0 <= u1_t5_h6 <= 1;
0 <= u1_t5_h7 <= 1;
0 <= u1_t5_h8 <= 1;
0 <= u1_t5_h9 <= 1;
0 <= u1_t5_h10 <= 1;
0 <= u1_t5_h11 <= 1;
0 <= u1_t5_h12 <= 1;
u1_t5_h6 + u1_t5_h7 + u1_t5_h8 + u1_t5_h9 + u1_t5_h10 + u1_t5_h11 + u1_t5_h12 = 3;
0 <= u1_t6_h18 <= 1;
0 <= u1_t6_h19 <= 1;
0 <= u1_t6_h20 <= 1;
u1_t6_h18 + u1_t6_h19 + u1_t6_h20 = 2;
0 <= u1_t7_h4 <= 1;
0 <= u1_t7_h5 <= 1;
0 <= u1_t7_h6 <= 1;
0 <= u1_t7_h7 <= 1;
0 <= u1_t7_h8 <= 1;
0 <= u1_t7_h9 <= 1;
0 <= u1_t7_h10 <= 1;
u1_t7_h4 + u1_t7_h5 + u1_t7_h6 + u1_t7_h7 + u1_t7_h8 + u1_t7_h9 + u1_t7_h10 = 2;
0 <= u1_t8_h12 <= 1;
0 <= u1_t8_h13 <= 1;
0 <= u1_t8_h14 <= 1;
0 <= u1_t8_h15 <= 1;
0 <= u1_t8_h16 <= 1;
0 <= u1_t8_h17 <= 1;
0 <= u1_t8_h18 <= 1;
u1_t8_h12 + u1_t8_h13 + u1_t8_h14 + u1_t8_h15 + u1_t8_h16 + u1_t8_h17 + u1_t8_h18 = 2;
0 <= u1_t9_h7 <= 1;
0 <= u1_t9_h8 <= 1;
0 <= u1_t9_h9 <= 1;
0 <= u1_t9_h10 <= 1;
0 <= u1_t9_h11 <= 1;
0 <= u1_t9_h12 <= 1;
0 <= u1_t9_h13 <= 1;
0 <= u1_t9_h14 <= 1;
u1_t9_h7 + u1_t9_h8 + u1_t9_h9 + u1_t9_h10 + u1_t9_h11 + u1_t9_h12 + u1_t9_h13 + u1_t9_h14 = 3;
0 <= u1_t10_h8 <= 1;
0 <= u1_t10_h9 <= 1;
0 <= u1_t10_h10 <= 1;
0 <= u1_t10_h11 <= 1;
0 <= u1_t10_h12 <= 1;
0 <= u1_t10_h13 <= 1;
0 <= u1_t10_h14 <= 1;
u1_t10_h8 + u1_t10_h9 + u1_t10_h10 + u1_t10_h11 + u1_t10_h12 + u1_t10_h13 + u1_t10_h14 = 3;
